p cnf 175 979
1 2 3 4 5 0
6 7 8 9 10 0
11 12 13 14 15 0
16 17 18 19 20 0
21 22 23 24 25 0
26 27 28 29 30 0
31 32 33 34 35 0
36 37 38 39 40 0
41 42 43 44 45 0
46 47 48 49 50 0
51 52 53 54 55 0
56 57 58 59 60 0
61 62 63 64 65 0
66 67 68 69 70 0
71 72 73 74 75 0
76 77 78 79 80 0
81 82 83 84 85 0
86 87 88 89 90 0
91 92 93 94 95 0
96 97 98 99 100 0
101 102 103 104 105 0
106 107 108 109 110 0
111 112 113 114 115 0
116 117 118 119 120 0
121 122 123 124 125 0
126 127 128 129 130 0
131 132 133 134 135 0
136 137 138 139 140 0
141 142 143 144 145 0
146 147 148 149 150 0
151 152 153 154 155 0
156 157 158 159 160 0
161 162 163 164 165 0
166 167 168 169 170 0
171 172 173 174 175 0
-1 -2 0
-1 -3 0
-1 -4 0
-1 -5 0
-2 -3 0
-2 -4 0
-2 -5 0
-3 -4 0
-3 -5 0
-4 -5 0
-6 -7 0
-6 -8 0
-6 -9 0
-6 -10 0
-7 -8 0
-7 -9 0
-7 -10 0
-8 -9 0
-8 -10 0
-9 -10 0
-11 -12 0
-11 -13 0
-11 -14 0
-11 -15 0
-12 -13 0
-12 -14 0
-12 -15 0
-13 -14 0
-13 -15 0
-14 -15 0
-16 -17 0
-16 -18 0
-16 -19 0
-16 -20 0
-17 -18 0
-17 -19 0
-17 -20 0
-18 -19 0
-18 -20 0
-19 -20 0
-21 -22 0
-21 -23 0
-21 -24 0
-21 -25 0
-22 -23 0
-22 -24 0
-22 -25 0
-23 -24 0
-23 -25 0
-24 -25 0
-26 -27 0
-26 -28 0
-26 -29 0
-26 -30 0
-27 -28 0
-27 -29 0
-27 -30 0
-28 -29 0
-28 -30 0
-29 -30 0
-31 -32 0
-31 -33 0
-31 -34 0
-31 -35 0
-32 -33 0
-32 -34 0
-32 -35 0
-33 -34 0
-33 -35 0
-34 -35 0
-36 -37 0
-36 -38 0
-36 -39 0
-36 -40 0
-37 -38 0
-37 -39 0
-37 -40 0
-38 -39 0
-38 -40 0
-39 -40 0
-41 -42 0
-41 -43 0
-41 -44 0
-41 -45 0
-42 -43 0
-42 -44 0
-42 -45 0
-43 -44 0
-43 -45 0
-44 -45 0
-46 -47 0
-46 -48 0
-46 -49 0
-46 -50 0
-47 -48 0
-47 -49 0
-47 -50 0
-48 -49 0
-48 -50 0
-49 -50 0
-51 -52 0
-51 -53 0
-51 -54 0
-51 -55 0
-52 -53 0
-52 -54 0
-52 -55 0
-53 -54 0
-53 -55 0
-54 -55 0
-56 -57 0
-56 -58 0
-56 -59 0
-56 -60 0
-57 -58 0
-57 -59 0
-57 -60 0
-58 -59 0
-58 -60 0
-59 -60 0
-61 -62 0
-61 -63 0
-61 -64 0
-61 -65 0
-62 -63 0
-62 -64 0
-62 -65 0
-63 -64 0
-63 -65 0
-64 -65 0
-66 -67 0
-66 -68 0
-66 -69 0
-66 -70 0
-67 -68 0
-67 -69 0
-67 -70 0
-68 -69 0
-68 -70 0
-69 -70 0
-71 -72 0
-71 -73 0
-71 -74 0
-71 -75 0
-72 -73 0
-72 -74 0
-72 -75 0
-73 -74 0
-73 -75 0
-74 -75 0
-76 -77 0
-76 -78 0
-76 -79 0
-76 -80 0
-77 -78 0
-77 -79 0
-77 -80 0
-78 -79 0
-78 -80 0
-79 -80 0
-81 -82 0
-81 -83 0
-81 -84 0
-81 -85 0
-82 -83 0
-82 -84 0
-82 -85 0
-83 -84 0
-83 -85 0
-84 -85 0
-86 -87 0
-86 -88 0
-86 -89 0
-86 -90 0
-87 -88 0
-87 -89 0
-87 -90 0
-88 -89 0
-88 -90 0
-89 -90 0
-91 -92 0
-91 -93 0
-91 -94 0
-91 -95 0
-92 -93 0
-92 -94 0
-92 -95 0
-93 -94 0
-93 -95 0
-94 -95 0
-96 -97 0
-96 -98 0
-96 -99 0
-96 -100 0
-97 -98 0
-97 -99 0
-97 -100 0
-98 -99 0
-98 -100 0
-99 -100 0
-101 -102 0
-101 -103 0
-101 -104 0
-101 -105 0
-102 -103 0
-102 -104 0
-102 -105 0
-103 -104 0
-103 -105 0
-104 -105 0
-106 -107 0
-106 -108 0
-106 -109 0
-106 -110 0
-107 -108 0
-107 -109 0
-107 -110 0
-108 -109 0
-108 -110 0
-109 -110 0
-111 -112 0
-111 -113 0
-111 -114 0
-111 -115 0
-112 -113 0
-112 -114 0
-112 -115 0
-113 -114 0
-113 -115 0
-114 -115 0
-116 -117 0
-116 -118 0
-116 -119 0
-116 -120 0
-117 -118 0
-117 -119 0
-117 -120 0
-118 -119 0
-118 -120 0
-119 -120 0
-121 -122 0
-121 -123 0
-121 -124 0
-121 -125 0
-122 -123 0
-122 -124 0
-122 -125 0
-123 -124 0
-123 -125 0
-124 -125 0
-126 -127 0
-126 -128 0
-126 -129 0
-126 -130 0
-127 -128 0
-127 -129 0
-127 -130 0
-128 -129 0
-128 -130 0
-129 -130 0
-131 -132 0
-131 -133 0
-131 -134 0
-131 -135 0
-132 -133 0
-132 -134 0
-132 -135 0
-133 -134 0
-133 -135 0
-134 -135 0
-136 -137 0
-136 -138 0
-136 -139 0
-136 -140 0
-137 -138 0
-137 -139 0
-137 -140 0
-138 -139 0
-138 -140 0
-139 -140 0
-141 -142 0
-141 -143 0
-141 -144 0
-141 -145 0
-142 -143 0
-142 -144 0
-142 -145 0
-143 -144 0
-143 -145 0
-144 -145 0
-146 -147 0
-146 -148 0
-146 -149 0
-146 -150 0
-147 -148 0
-147 -149 0
-147 -150 0
-148 -149 0
-148 -150 0
-149 -150 0
-151 -152 0
-151 -153 0
-151 -154 0
-151 -155 0
-152 -153 0
-152 -154 0
-152 -155 0
-153 -154 0
-153 -155 0
-154 -155 0
-156 -157 0
-156 -158 0
-156 -159 0
-156 -160 0
-157 -158 0
-157 -159 0
-157 -160 0
-158 -159 0
-158 -160 0
-159 -160 0
-161 -162 0
-161 -163 0
-161 -164 0
-161 -165 0
-162 -163 0
-162 -164 0
-162 -165 0
-163 -164 0
-163 -165 0
-164 -165 0
-166 -167 0
-166 -168 0
-166 -169 0
-166 -170 0
-167 -168 0
-167 -169 0
-167 -170 0
-168 -169 0
-168 -170 0
-169 -170 0
-171 -172 0
-171 -173 0
-171 -174 0
-171 -175 0
-172 -173 0
-172 -174 0
-172 -175 0
-173 -174 0
-173 -175 0
-174 -175 0
-4 -7 0
-2 -7 0
-2 -23 0
-4 -24 0
-4 -35 0
-3 -33 0
-5 -37 0
-3 -40 0
-1 -45 0
-4 -45 0
-4 -49 0
-2 -48 0
-1 -65 0
-5 -62 0
-1 -85 0
-2 -85 0
-2 -94 0
-3 -91 0
-4 -100 0
-3 -96 0
-3 -105 0
-5 -104 0
-5 -110 0
-4 -108 0
-3 -122 0
-1 -121 0
-2 -133 0
-5 -133 0
-3 -138 0
-5 -136 0
-3 -160 0
-4 -160 0
-5 -169 0
-4 -170 0
-4 -171 0
-3 -172 0
-8 -28 0
-7 -28 0
-9 -33 0
-10 -34 0
-7 -40 0
-8 -37 0
-10 -44 0
-8 -41 0
-7 -62 0
-7 -65 0
-10 -68 0
-8 -67 0
-8 -74 0
-10 -75 0
-10 -90 0
-10 -86 0
-10 -95 0
-9 -92 0
-8 -98 0
-7 -99 0
-8 -103 0
-8 -104 0
-6 -110 0
-8 -110 0
-9 -112 0
-7 -113 0
-6 -139 0
-10 -139 0
-7 -145 0
-6 -143 0
-10 -148 0
-6 -150 0
-10 -157 0
-8 -156 0
-9 -166 0
-9 -170 0
-9 -171 0
-8 -175 0
-13 -26 0
-15 -30 0
-15 -34 0
-15 -31 0
-13 -45 0
-13 -41 0
-15 -48 0
-14 -47 0
-13 -67 0
-13 -66 0
-12 -78 0
-11 -76 0
-15 -91 0
-13 -93 0
-11 -99 0
-13 -97 0
-12 -101 0
-12 -105 0
-12 -108 0
-14 -107 0
-13 -114 0
-14 -115 0
-12 -125 0
-11 -123 0
-14 -145 0
-14 -142 0
-11 -150 0
-13 -148 0
-14 -153 0
-13 -154 0
-11 -173 0
-11 -174 0
-20 -25 0
-19 -24 0
-19 -50 0
-19 -47 0
-18 -54 0
-18 -53 0
-17 -56 0
-19 -58 0
-20 -70 0
-20 -68 0
-20 -96 0
-16 -98 0
-20 -103 0
-20 -102 0
-18 -120 0
-16 -119 0
-16 -130 0
-19 -130 0
-16 -135 0
-19 -132 0
-17 -141 0
-17 -143 0
-16 -149 0
-20 -147 0
-20 -153 0
-17 -154 0
-19 -161 0
-20 -161 0
-17 -169 0
-17 -166 0
-19 -173 0
-18 -174 0
-25 -51 0
-24 -53 0
-24 -60 0
-22 -57 0
-21 -64 0
-22 -62 0
-25 -71 0
-23 -71 0
-21 -84 0
-23 -81 0
-22 -88 0
-22 -87 0
-23 -104 0
-22 -102 0
-22 -107 0
-23 -107 0
-23 -116 0
-21 -116 0
-22 -124 0
-24 -125 0
-24 -130 0
-21 -128 0
-25 -141 0
-23 -145 0
-22 -147 0
-25 -149 0
-23 -164 0
-25 -162 0
-24 -172 0
-22 -171 0
-27 -34 0
-28 -31 0
-27 -44 0
-29 -45 0
-30 -48 0
-27 -46 0
-29 -54 0
-28 -54 0
-26 -60 0
-30 -57 0
-26 -70 0
-30 -66 0
-28 -75 0
-29 -73 0
-30 -79 0
-26 -76 0
-26 -81 0
-27 -84 0
-29 -91 0
-27 -95 0
-29 -130 0
-28 -130 0
-26 -138 0
-28 -139 0
-29 -142 0
-27 -141 0
-26 -150 0
-27 -150 0
-32 -39 0
-31 -37 0
-33 -44 0
-33 -41 0
-34 -55 0
-34 -53 0
-31 -60 0
-31 -59 0
-33 -63 0
-32 -65 0
-33 -66 0
-31 -70 0
-35 -71 0
-32 -72 0
-33 -76 0
-32 -78 0
-34 -82 0
-33 -81 0
-35 -103 0
-32 -103 0
-31 -113 0
-34 -112 0
-32 -123 0
-33 -123 0
-34 -129 0
-34 -127 0
-33 -163 0
-34 -164 0
-32 -168 0
-34 -168 0
-34 -175 0
-33 -174 0
-39 -44 0
-39 -41 0
-36 -49 0
-39 -50 0
-38 -51 0
-40 -54 0
-36 -59 0
-40 -57 0
-38 -63 0
-37 -62 0
-37 -103 0
-40 -102 0
-37 -107 0
-36 -109 0
-37 -118 0
-40 -119 0
-39 -122 0
-38 -124 0
-40 -127 0
-37 -127 0
-38 -136 0
-39 -136 0
-36 -155 0
-38 -152 0
-36 -168 0
-40 -166 0
-38 -172 0
-36 -175 0
-43 -47 0
-42 -46 0
-42 -52 0
-41 -55 0
-43 -57 0
-42 -59 0
-45 -64 0
-42 -63 0
-42 -69 0
-44 -69 0
-42 -94 0
-43 -95 0
-45 -107 0
-41 -110 0
-43 -117 0
-42 -118 0
-45 -125 0
-44 -122 0
-41 -126 0
-45 -128 0
-42 -132 0
-42 -131 0
-43 -142 0
-42 -144 0
-41 -151 0
-44 -154 0
-44 -161 0
-41 -164 0
-43 -167 0
-41 -168 0
-41 -171 0
-45 -173 0
-48 -63 0
-50 -62 0
-47 -70 0
-46 -68 0
-47 -104 0
-46 -101 0
-49 -109 0
-50 -109 0
-46 -117 0
-48 -117 0
-47 -129 0
-48 -127 0
-46 -135 0
-48 -134 0
-48 -145 0
-48 -142 0
-50 -157 0
-50 -160 0
-46 -165 0
-50 -163 0
-49 -170 0
-48 -167 0
-49 -172 0
-48 -174 0
-53 -82 0
-54 -82 0
-55 -94 0
-51 -91 0
-51 -113 0
-55 -115 0
-53 -118 0
-51 -116 0
-53 -121 0
-52 -124 0
-52 -126 0
-52 -130 0
-52 -144 0
-52 -145 0
-51 -155 0
-55 -153 0
-54 -161 0
-52 -162 0
-53 -167 0
-55 -169 0
-59 -70 0
-60 -69 0
-60 -95 0
-56 -91 0
-59 -98 0
-56 -96 0
-58 -106 0
-60 -107 0
-59 -114 0
-59 -111 0
-57 -116 0
-60 -118 0
-59 -127 0
-56 -126 0
-60 -143 0
-58 -145 0
-59 -163 0
-56 -163 0
-62 -67 0
-61 -70 0
-65 -74 0
-61 -73 0
-65 -80 0
-63 -79 0
-64 -100 0
-65 -97 0
-62 -114 0
-63 -115 0
-62 -116 0
-62 -120 0
-62 -142 0
-61 -142 0
-62 -155 0
-65 -154 0
-61 -156 0
-65 -156 0
-62 -168 0
-61 -167 0
-63 -171 0
-65 -172 0
-69 -72 0
-69 -75 0
-66 -82 0
-68 -83 0
-67 -95 0
-70 -93 0
-66 -105 0
-67 -105 0
-68 -110 0
-66 -110 0
-66 -130 0
-67 -130 0
-70 -137 0
-70 -136 0
-67 -147 0
-70 -149 0
-69 -153 0
-70 -152 0
-70 -160 0
-69 -158 0
-73 -80 0
-75 -76 0
-72 -84 0
-75 -83 0
-73 -91 0
-72 -92 0
-72 -100 0
-73 -98 0
-72 -106 0
-71 -107 0
-73 -116 0
-71 -117 0
-74 -140 0
-75 -139 0
-74 -142 0
-71 -141 0
-72 -155 0
-74 -154 0
-75 -160 0
-75 -159 0
-71 -168 0
-74 -166 0
-75 -172 0
-74 -172 0
-80 -86 0
-76 -89 0
-77 -91 0
-79 -95 0
-76 -104 0
-79 -105 0
-78 -107 0
-78 -108 0
-80 -123 0
-76 -123 0
-79 -128 0
-78 -126 0
-80 -132 0
-76 -133 0
-79 -144 0
-79 -141 0
-79 -150 0
-79 -148 0
-80 -160 0
-80 -156 0
-79 -168 0
-77 -167 0
-83 -104 0
-82 -104 0
-82 -108 0
-84 -110 0
-84 -120 0
-84 -117 0
-85 -129 0
-84 -127 0
-81 -140 0
-82 -138 0
-85 -149 0
-85 -150 0
-83 -174 0
-84 -171 0
-90 -95 0
-87 -91 0
-88 -96 0
-90 -99 0
-87 -104 0
-90 -101 0
-89 -127 0
-88 -128 0
-86 -136 0
-89 -137 0
-90 -150 0
-86 -150 0
-87 -171 0
-90 -175 0
-94 -97 0
-95 -96 0
-94 -108 0
-91 -107 0
-92 -112 0
-92 -115 0
-92 -118 0
-94 -117 0
-91 -130 0
-92 -129 0
-98 -105 0
-96 -102 0
-97 -112 0
-97 -113 0
-99 -139 0
-98 -136 0
-98 -150 0
-98 -149 0
-96 -155 0
-98 -154 0
-99 -165 0
-99 -164 0
-98 -171 0
-100 -171 0
-105 -118 0
-101 -116 0
-104 -121 0
-102 -124 0
-104 -139 0
-104 -138 0
-104 -143 0
-103 -145 0
-103 -167 0
-104 -167 0
-102 -172 0
-103 -171 0
-109 -116 0
-106 -117 0
-109 -123 0
-106 -123 0
-108 -129 0
-107 -127 0
-107 -134 0
-106 -132 0
-107 -139 0
-110 -137 0
-106 -150 0
-107 -146 0
-107 -165 0
-107 -162 0
-114 -116 0
-115 -119 0
-115 -132 0
-115 -131 0
-112 -138 0
-114 -138 0
-114 -147 0
-115 -147 0
-111 -165 0
-111 -162 0
-114 -170 0
-115 -167 0
-119 -126 0
-116 -126 0
-120 -137 0
-118 -140 0
-117 -148 0
-116 -146 0
-119 -154 0
-116 -155 0
-120 -159 0
-119 -159 0
-123 -134 0
-125 -133 0
-124 -137 0
-123 -136 0
-124 -152 0
-123 -154 0
-124 -159 0
-123 -159 0
-122 -164 0
-123 -163 0
-128 -136 0
-126 -137 0
-129 -141 0
-127 -144 0
-128 -146 0
-127 -146 0
-126 -157 0
-130 -159 0
-130 -175 0
-126 -173 0
-131 -138 0
-135 -140 0
-135 -145 0
-132 -145 0
-135 -163 0
-131 -165 0
-134 -167 0
-135 -170 0
-136 -153 0
-139 -152 0
-142 -151 0
-142 -154 0
-142 -163 0
-145 -164 0
-145 -170 0
-142 -166 0
-145 -174 0
-145 -172 0
-147 -156 0
-146 -160 0
-146 -162 0
-150 -165 0
-147 -168 0
-148 -167 0
-150 -175 0
-150 -173 0
-155 -161 0
-153 -163 0
-152 -169 0
-153 -170 0
-159 -166 0
-159 -167 0
-156 -175 0
-160 -171 0
-163 -171 0
-162 -171 0
